p cnf 10 30
-4 -7 6 0
-5 -4 -3 0
-6 -4 -5 0
-4 -10 -5 0
-2 10 -9 0
-3 -1 -9 0
-8 -7 6 0
-2 7 3 0
8 -2 -5 0
3 1 -10 0
-7 -2 -4 0
4 -7 -3 0
-1 -9 -10 0
3 -1 7 0
9 -5 -8 0
-6 7 -2 0
6 5 2 0
10 5 -3 0
9 2 -3 0
-4 10 5 0
-2 -5 8 0
-4 2 10 0
10 4 -8 0
-10 5 2 0
4 8 -10 0
4 -2 -5 0
-10 8 -3 0
-10 -7 -8 0
2 4 -1 0
6 -9 -8 0
